! OpenParEM3D 2.1.0
! 2-port S-parameter data
! S-port 1 net1
! S-port 2 net2
# GHz S DB R 50
!freq dBS11 angS11 dBS21 angS21 dBS12 angS12 dBS22 angS22
0.5 -0.0167055906450914 -35.3013426273821 -40.0358036574935 54.5517299345129 -40.0358036574935 54.5517299345129 -0.0165348413369295 -35.2592160684354
0.55 -0.0189477586743684 -39.1003067308396 -39.5230473797553 50.7476713647396 -39.5230473797553 50.7476713647396 -0.0187643997992785 -39.0478714261249
3 -11.223105478213 40.5484267626506 -1.08848544593377 129.065203097787 -1.08848544593377 129.065203097787 -11.0913574977969 36.1880766866589
